2 1
3 1
3 2
4 1
4 2
4 3
5 1
5 2
5 3
5 4
6 1
6 2
6 3
6 4
6 5
7 1
7 2
7 3
7 4
7 5
7 6
8 1
8 2
8 3
8 4
8 5
8 6
8 7
9 1
9 2
9 3
9 4
9 5
9 6
9 7
9 8
10 1
10 2
10 3
10 4
10 5
10 6
10 7
10 8
10 9
11 1
11 2
11 3
11 4
11 5
11 6
11 7
11 8
11 9
11 10
12 1
12 2
12 3
12 4
12 5
12 6
12 7
12 8
12 9
12 10
12 11
13 1
13 2
13 3
13 4
13 5
13 6
13 7
13 8
13 9
13 10
13 11
13 12
14 1
14 2
14 3
14 4
14 5
14 6
14 7
14 8
14 9
14 10
14 11
14 12
14 13
15 1
15 2
15 3
15 4
15 5
15 6
15 7
15 8
15 9
15 10
15 11
15 12
15 13
15 14
16 1
16 2
17 1
17 2
17 3
17 16
18 2
18 3
18 4
18 16
18 17
19 3
19 4
19 5
19 16
19 17
19 18
20 4
20 5
20 6
20 16
20 17
20 18
20 19
21 5
21 6
21 7
21 16
21 17
21 18
21 19
21 20
22 6
22 7
22 8
22 16
22 17
22 18
22 19
22 20
22 21
23 7
23 8
23 9
23 16
23 17
23 18
23 19
23 20
23 21
23 22
24 8
24 9
24 10
24 16
24 17
24 18
24 19
24 20
24 21
24 22
24 23
25 9
25 10
25 11
25 16
25 17
25 18
25 19
25 20
25 21
25 22
25 23
25 24
26 10
26 11
26 12
26 16
26 17
26 18
26 19
26 20
26 21
26 22
26 23
26 24
26 25
27 11
27 12
27 13
27 16
27 17
27 18
27 19
27 20
27 21
27 22
27 23
27 24
27 25
27 26
28 12
28 13
28 14
28 16
28 17
28 18
28 19
28 20
28 21
28 22
28 23
28 24
28 25
28 26
28 27
29 13
29 14
29 15
29 16
29 17
29 18
29 19
29 20
29 21
29 22
29 23
29 24
29 25
29 26
29 27
29 28
30 14
30 15
30 16
30 17
30 18
30 19
30 20
30 21
30 22
30 23
30 24
30 25
30 26
30 27
30 28
30 29
31 1
31 3
31 16
31 17
32 2
32 4
32 16
32 17
32 18
32 31
33 1
33 3
33 5
33 17
33 18
33 19
33 31
33 32
34 2
34 4
34 6
34 18
34 19
34 20
34 31
34 32
34 33
35 3
35 5
35 7
35 19
35 20
35 21
35 31
35 32
35 33
35 34
36 4
36 6
36 8
36 20
36 21
36 22
36 31
36 32
36 33
36 34
36 35
37 5
37 7
37 9
37 21
37 22
37 23
37 31
37 32
37 33
37 34
37 35
37 36
38 6
38 8
38 10
38 22
38 23
38 24
38 31
38 32
38 33
38 34
38 35
38 36
38 37
39 7
39 9
39 11
39 23
39 24
39 25
39 31
39 32
39 33
39 34
39 35
39 36
39 37
39 38
40 8
40 10
40 12
40 24
40 25
40 26
40 31
40 32
40 33
40 34
40 35
40 36
40 37
40 38
40 39
41 9
41 11
41 13
41 25
41 26
41 27
41 31
41 32
41 33
41 34
41 35
41 36
41 37
41 38
41 39
41 40
42 10
42 12
42 14
42 26
42 27
42 28
42 31
42 32
42 33
42 34
42 35
42 36
42 37
42 38
42 39
42 40
42 41
43 11
43 13
43 15
43 27
43 28
43 29
43 31
43 32
43 33
43 34
43 35
43 36
43 37
43 38
43 39
43 40
43 41
43 42
44 12
44 14
44 28
44 29
44 30
44 31
44 32
44 33
44 34
44 35
44 36
44 37
44 38
44 39
44 40
44 41
44 42
44 43
45 13
45 15
45 29
45 30
45 31
45 32
45 33
45 34
45 35
45 36
45 37
45 38
45 39
45 40
45 41
45 42
45 43
45 44
46 1
46 4
46 16
46 18
46 31
46 32
47 2
47 5
47 17
47 19
47 31
47 32
47 33
47 46
48 3
48 6
48 16
48 18
48 20
48 32
48 33
48 34
48 46
48 47
49 1
49 4
49 7
49 17
49 19
49 21
49 33
49 34
49 35
49 46
49 47
49 48
50 2
50 5
50 8
50 18
50 20
50 22
50 34
50 35
50 36
50 46
50 47
50 48
50 49
51 3
51 6
51 9
51 19
51 21
51 23
51 35
51 36
51 37
51 46
51 47
51 48
51 49
51 50
52 4
52 7
52 10
52 20
52 22
52 24
52 36
52 37
52 38
52 46
52 47
52 48
52 49
52 50
52 51
53 5
53 8
53 11
53 21
53 23
53 25
53 37
53 38
53 39
53 46
53 47
53 48
53 49
53 50
53 51
53 52
54 6
54 9
54 12
54 22
54 24
54 26
54 38
54 39
54 40
54 46
54 47
54 48
54 49
54 50
54 51
54 52
54 53
55 7
55 10
55 13
55 23
55 25
55 27
55 39
55 40
55 41
55 46
55 47
55 48
55 49
55 50
55 51
55 52
55 53
55 54
56 8
56 11
56 14
56 24
56 26
56 28
56 40
56 41
56 42
56 46
56 47
56 48
56 49
56 50
56 51
56 52
56 53
56 54
56 55
57 9
57 12
57 15
57 25
57 27
57 29
57 41
57 42
57 43
57 46
57 47
57 48
57 49
57 50
57 51
57 52
57 53
57 54
57 55
57 56
58 10
58 13
58 26
58 28
58 30
58 42
58 43
58 44
58 46
58 47
58 48
58 49
58 50
58 51
58 52
58 53
58 54
58 55
58 56
58 57
59 11
59 14
59 27
59 29
59 43
59 44
59 45
59 46
59 47
59 48
59 49
59 50
59 51
59 52
59 53
59 54
59 55
59 56
59 57
59 58
60 12
60 15
60 28
60 30
60 44
60 45
60 46
60 47
60 48
60 49
60 50
60 51
60 52
60 53
60 54
60 55
60 56
60 57
60 58
60 59
61 1
61 5
61 16
61 19
61 31
61 33
61 46
61 47
62 2
62 6
62 17
62 20
62 32
62 34
62 46
62 47
62 48
62 61
63 3
63 7
63 18
63 21
63 31
63 33
63 35
63 47
63 48
63 49
63 61
63 62
64 4
64 8
64 16
64 19
64 22
64 32
64 34
64 36
64 48
64 49
64 50
64 61
64 62
64 63
65 1
65 5
65 9
65 17
65 20
65 23
65 33
65 35
65 37
65 49
65 50
65 51
65 61
65 62
65 63
65 64
66 2
66 6
66 10
66 18
66 21
66 24
66 34
66 36
66 38
66 50
66 51
66 52
66 61
66 62
66 63
66 64
66 65
67 3
67 7
67 11
67 19
67 22
67 25
67 35
67 37
67 39
67 51
67 52
67 53
67 61
67 62
67 63
67 64
67 65
67 66
68 4
68 8
68 12
68 20
68 23
68 26
68 36
68 38
68 40
68 52
68 53
68 54
68 61
68 62
68 63
68 64
68 65
68 66
68 67
69 5
69 9
69 13
69 21
69 24
69 27
69 37
69 39
69 41
69 53
69 54
69 55
69 61
69 62
69 63
69 64
69 65
69 66
69 67
69 68
70 6
70 10
70 14
70 22
70 25
70 28
70 38
70 40
70 42
70 54
70 55
70 56
70 61
70 62
70 63
70 64
70 65
70 66
70 67
70 68
70 69
71 7
71 11
71 15
71 23
71 26
71 29
71 39
71 41
71 43
71 55
71 56
71 57
71 61
71 62
71 63
71 64
71 65
71 66
71 67
71 68
71 69
71 70
72 8
72 12
72 24
72 27
72 30
72 40
72 42
72 44
72 56
72 57
72 58
72 61
72 62
72 63
72 64
72 65
72 66
72 67
72 68
72 69
72 70
72 71
73 9
73 13
73 25
73 28
73 41
73 43
73 45
73 57
73 58
73 59
73 61
73 62
73 63
73 64
73 65
73 66
73 67
73 68
73 69
73 70
73 71
73 72
74 10
74 14
74 26
74 29
74 42
74 44
74 58
74 59
74 60
74 61
74 62
74 63
74 64
74 65
74 66
74 67
74 68
74 69
74 70
74 71
74 72
74 73
75 11
75 15
75 27
75 30
75 43
75 45
75 59
75 60
75 61
75 62
75 63
75 64
75 65
75 66
75 67
75 68
75 69
75 70
75 71
75 72
75 73
75 74
76 1
76 6
76 16
76 20
76 31
76 34
76 46
76 48
76 61
76 62
77 2
77 7
77 17
77 21
77 32
77 35
77 47
77 49
77 61
77 62
77 63
77 76
78 3
78 8
78 18
78 22
78 33
78 36
78 46
78 48
78 50
78 62
78 63
78 64
78 76
78 77
79 4
79 9
79 19
79 23
79 31
79 34
79 37
79 47
79 49
79 51
79 63
79 64
79 65
79 76
79 77
79 78
80 5
80 10
80 16
80 20
80 24
80 32
80 35
80 38
80 48
80 50
80 52
80 64
80 65
80 66
80 76
80 77
80 78
80 79
81 1
81 6
81 11
81 17
81 21
81 25
81 33
81 36
81 39
81 49
81 51
81 53
81 65
81 66
81 67
81 76
81 77
81 78
81 79
81 80
82 2
82 7
82 12
82 18
82 22
82 26
82 34
82 37
82 40
82 50
82 52
82 54
82 66
82 67
82 68
82 76
82 77
82 78
82 79
82 80
82 81
83 3
83 8
83 13
83 19
83 23
83 27
83 35
83 38
83 41
83 51
83 53
83 55
83 67
83 68
83 69
83 76
83 77
83 78
83 79
83 80
83 81
83 82
84 4
84 9
84 14
84 20
84 24
84 28
84 36
84 39
84 42
84 52
84 54
84 56
84 68
84 69
84 70
84 76
84 77
84 78
84 79
84 80
84 81
84 82
84 83
85 5
85 10
85 15
85 21
85 25
85 29
85 37
85 40
85 43
85 53
85 55
85 57
85 69
85 70
85 71
85 76
85 77
85 78
85 79
85 80
85 81
85 82
85 83
85 84
86 6
86 11
86 22
86 26
86 30
86 38
86 41
86 44
86 54
86 56
86 58
86 70
86 71
86 72
86 76
86 77
86 78
86 79
86 80
86 81
86 82
86 83
86 84
86 85
87 7
87 12
87 23
87 27
87 39
87 42
87 45
87 55
87 57
87 59
87 71
87 72
87 73
87 76
87 77
87 78
87 79
87 80
87 81
87 82
87 83
87 84
87 85
87 86
88 8
88 13
88 24
88 28
88 40
88 43
88 56
88 58
88 60
88 72
88 73
88 74
88 76
88 77
88 78
88 79
88 80
88 81
88 82
88 83
88 84
88 85
88 86
88 87
89 9
89 14
89 25
89 29
89 41
89 44
89 57
89 59
89 73
89 74
89 75
89 76
89 77
89 78
89 79
89 80
89 81
89 82
89 83
89 84
89 85
89 86
89 87
89 88
90 10
90 15
90 26
90 30
90 42
90 45
90 58
90 60
90 74
90 75
90 76
90 77
90 78
90 79
90 80
90 81
90 82
90 83
90 84
90 85
90 86
90 87
90 88
90 89
91 1
91 7
91 16
91 21
91 31
91 35
91 46
91 49
91 61
91 63
91 76
91 77
92 2
92 8
92 17
92 22
92 32
92 36
92 47
92 50
92 62
92 64
92 76
92 77
92 78
92 91
93 3
93 9
93 18
93 23
93 33
93 37
93 48
93 51
93 61
93 63
93 65
93 77
93 78
93 79
93 91
93 92
94 4
94 10
94 19
94 24
94 34
94 38
94 46
94 49
94 52
94 62
94 64
94 66
94 78
94 79
94 80
94 91
94 92
94 93
95 5
95 11
95 20
95 25
95 31
95 35
95 39
95 47
95 50
95 53
95 63
95 65
95 67
95 79
95 80
95 81
95 91
95 92
95 93
95 94
96 6
96 12
96 16
96 21
96 26
96 32
96 36
96 40
96 48
96 51
96 54
96 64
96 66
96 68
96 80
96 81
96 82
96 91
96 92
96 93
96 94
96 95
97 1
97 7
97 13
97 17
97 22
97 27
97 33
97 37
97 41
97 49
97 52
97 55
97 65
97 67
97 69
97 81
97 82
97 83
97 91
97 92
97 93
97 94
97 95
97 96
98 2
98 8
98 14
98 18
98 23
98 28
98 34
98 38
98 42
98 50
98 53
98 56
98 66
98 68
98 70
98 82
98 83
98 84
98 91
98 92
98 93
98 94
98 95
98 96
98 97
99 3
99 9
99 15
99 19
99 24
99 29
99 35
99 39
99 43
99 51
99 54
99 57
99 67
99 69
99 71
99 83
99 84
99 85
99 91
99 92
99 93
99 94
99 95
99 96
99 97
99 98
100 4
100 10
100 20
100 25
100 30
100 36
100 40
100 44
100 52
100 55
100 58
100 68
100 70
100 72
100 84
100 85
100 86
100 91
100 92
100 93
100 94
100 95
100 96
100 97
100 98
100 99
101 5
101 11
101 21
101 26
101 37
101 41
101 45
101 53
101 56
101 59
101 69
101 71
101 73
101 85
101 86
101 87
101 91
101 92
101 93
101 94
101 95
101 96
101 97
101 98
101 99
101 100
102 6
102 12
102 22
102 27
102 38
102 42
102 54
102 57
102 60
102 70
102 72
102 74
102 86
102 87
102 88
102 91
102 92
102 93
102 94
102 95
102 96
102 97
102 98
102 99
102 100
102 101
103 7
103 13
103 23
103 28
103 39
103 43
103 55
103 58
103 71
103 73
103 75
103 87
103 88
103 89
103 91
103 92
103 93
103 94
103 95
103 96
103 97
103 98
103 99
103 100
103 101
103 102
104 8
104 14
104 24
104 29
104 40
104 44
104 56
104 59
104 72
104 74
104 88
104 89
104 90
104 91
104 92
104 93
104 94
104 95
104 96
104 97
104 98
104 99
104 100
104 101
104 102
104 103
105 9
105 15
105 25
105 30
105 41
105 45
105 57
105 60
105 73
105 75
105 89
105 90
105 91
105 92
105 93
105 94
105 95
105 96
105 97
105 98
105 99
105 100
105 101
105 102
105 103
105 104
106 1
106 8
106 16
106 22
106 31
106 36
106 46
106 50
106 61
106 64
106 76
106 78
106 91
106 92
107 2
107 9
107 17
107 23
107 32
107 37
107 47
107 51
107 62
107 65
107 77
107 79
107 91
107 92
107 93
107 106
108 3
108 10
108 18
108 24
108 33
108 38
108 48
108 52
108 63
108 66
108 76
108 78
108 80
108 92
108 93
108 94
108 106
108 107
109 4
109 11
109 19
109 25
109 34
109 39
109 49
109 53
109 61
109 64
109 67
109 77
109 79
109 81
109 93
109 94
109 95
109 106
109 107
109 108
110 5
110 12
110 20
110 26
110 35
110 40
110 46
110 50
110 54
110 62
110 65
110 68
110 78
110 80
110 82
110 94
110 95
110 96
110 106
110 107
110 108
110 109
111 6
111 13
111 21
111 27
111 31
111 36
111 41
111 47
111 51
111 55
111 63
111 66
111 69
111 79
111 81
111 83
111 95
111 96
111 97
111 106
111 107
111 108
111 109
111 110
112 7
112 14
112 16
112 22
112 28
112 32
112 37
112 42
112 48
112 52
112 56
112 64
112 67
112 70
112 80
112 82
112 84
112 96
112 97
112 98
112 106
112 107
112 108
112 109
112 110
112 111
113 1
113 8
113 15
113 17
113 23
113 29
113 33
113 38
113 43
113 49
113 53
113 57
113 65
113 68
113 71
113 81
113 83
113 85
113 97
113 98
113 99
113 106
113 107
113 108
113 109
113 110
113 111
113 112
114 2
114 9
114 18
114 24
114 30
114 34
114 39
114 44
114 50
114 54
114 58
114 66
114 69
114 72
114 82
114 84
114 86
114 98
114 99
114 100
114 106
114 107
114 108
114 109
114 110
114 111
114 112
114 113
115 3
115 10
115 19
115 25
115 35
115 40
115 45
115 51
115 55
115 59
115 67
115 70
115 73
115 83
115 85
115 87
115 99
115 100
115 101
115 106
115 107
115 108
115 109
115 110
115 111
115 112
115 113
115 114
116 4
116 11
116 20
116 26
116 36
116 41
116 52
116 56
116 60
116 68
116 71
116 74
116 84
116 86
116 88
116 100
116 101
116 102
116 106
116 107
116 108
116 109
116 110
116 111
116 112
116 113
116 114
116 115
117 5
117 12
117 21
117 27
117 37
117 42
117 53
117 57
117 69
117 72
117 75
117 85
117 87
117 89
117 101
117 102
117 103
117 106
117 107
117 108
117 109
117 110
117 111
117 112
117 113
117 114
117 115
117 116
118 6
118 13
118 22
118 28
118 38
118 43
118 54
118 58
118 70
118 73
118 86
118 88
118 90
118 102
118 103
118 104
118 106
118 107
118 108
118 109
118 110
118 111
118 112
118 113
118 114
118 115
118 116
118 117
119 7
119 14
119 23
119 29
119 39
119 44
119 55
119 59
119 71
119 74
119 87
119 89
119 103
119 104
119 105
119 106
119 107
119 108
119 109
119 110
119 111
119 112
119 113
119 114
119 115
119 116
119 117
119 118
120 8
120 15
120 24
120 30
120 40
120 45
120 56
120 60
120 72
120 75
120 88
120 90
120 104
120 105
120 106
120 107
120 108
120 109
120 110
120 111
120 112
120 113
120 114
120 115
120 116
120 117
120 118
120 119
121 1
121 9
121 16
121 23
121 31
121 37
121 46
121 51
121 61
121 65
121 76
121 79
121 91
121 93
121 106
121 107
122 2
122 10
122 17
122 24
122 32
122 38
122 47
122 52
122 62
122 66
122 77
122 80
122 92
122 94
122 106
122 107
122 108
122 121
123 3
123 11
123 18
123 25
123 33
123 39
123 48
123 53
123 63
123 67
123 78
123 81
123 91
123 93
123 95
123 107
123 108
123 109
123 121
123 122
124 4
124 12
124 19
124 26
124 34
124 40
124 49
124 54
124 64
124 68
124 76
124 79
124 82
124 92
124 94
124 96
124 108
124 109
124 110
124 121
124 122
124 123
125 5
125 13
125 20
125 27
125 35
125 41
125 50
125 55
125 61
125 65
125 69
125 77
125 80
125 83
125 93
125 95
125 97
125 109
125 110
125 111
125 121
125 122
125 123
125 124
126 6
126 14
126 21
126 28
126 36
126 42
126 46
126 51
126 56
126 62
126 66
126 70
126 78
126 81
126 84
126 94
126 96
126 98
126 110
126 111
126 112
126 121
126 122
126 123
126 124
126 125
127 7
127 15
127 22
127 29
127 31
127 37
127 43
127 47
127 52
127 57
127 63
127 67
127 71
127 79
127 82
127 85
127 95
127 97
127 99
127 111
127 112
127 113
127 121
127 122
127 123
127 124
127 125
127 126
128 8
128 16
128 23
128 30
128 32
128 38
128 44
128 48
128 53
128 58
128 64
128 68
128 72
128 80
128 83
128 86
128 96
128 98
128 100
128 112
128 113
128 114
128 121
128 122
128 123
128 124
128 125
128 126
128 127
129 1
129 9
129 17
129 24
129 33
129 39
129 45
129 49
129 54
129 59
129 65
129 69
129 73
129 81
129 84
129 87
129 97
129 99
129 101
129 113
129 114
129 115
129 121
129 122
129 123
129 124
129 125
129 126
129 127
129 128
130 2
130 10
130 18
130 25
130 34
130 40
130 50
130 55
130 60
130 66
130 70
130 74
130 82
130 85
130 88
130 98
130 100
130 102
130 114
130 115
130 116
130 121
130 122
130 123
130 124
130 125
130 126
130 127
130 128
130 129
131 3
131 11
131 19
131 26
131 35
131 41
131 51
131 56
131 67
131 71
131 75
131 83
131 86
131 89
131 99
131 101
131 103
131 115
131 116
131 117
131 121
131 122
131 123
131 124
131 125
131 126
131 127
131 128
131 129
131 130
132 4
132 12
132 20
132 27
132 36
132 42
132 52
132 57
132 68
132 72
132 84
132 87
132 90
132 100
132 102
132 104
132 116
132 117
132 118
132 121
132 122
132 123
132 124
132 125
132 126
132 127
132 128
132 129
132 130
132 131
133 5
133 13
133 21
133 28
133 37
133 43
133 53
133 58
133 69
133 73
133 85
133 88
133 101
133 103
133 105
133 117
133 118
133 119
133 121
133 122
133 123
133 124
133 125
133 126
133 127
133 128
133 129
133 130
133 131
133 132
134 6
134 14
134 22
134 29
134 38
134 44
134 54
134 59
134 70
134 74
134 86
134 89
134 102
134 104
134 118
134 119
134 120
134 121
134 122
134 123
134 124
134 125
134 126
134 127
134 128
134 129
134 130
134 131
134 132
134 133
135 7
135 15
135 23
135 30
135 39
135 45
135 55
135 60
135 71
135 75
135 87
135 90
135 103
135 105
135 119
135 120
135 121
135 122
135 123
135 124
135 125
135 126
135 127
135 128
135 129
135 130
135 131
135 132
135 133
135 134
136 1
136 10
136 16
136 24
136 31
136 38
136 46
136 52
136 61
136 66
136 76
136 80
136 91
136 94
136 106
136 108
136 121
136 122
137 2
137 11
137 17
137 25
137 32
137 39
137 47
137 53
137 62
137 67
137 77
137 81
137 92
137 95
137 107
137 109
137 121
137 122
137 123
137 136
138 3
138 12
138 18
138 26
138 33
138 40
138 48
138 54
138 63
138 68
138 78
138 82
138 93
138 96
138 106
138 108
138 110
138 122
138 123
138 124
138 136
138 137
139 4
139 13
139 19
139 27
139 34
139 41
139 49
139 55
139 64
139 69
139 79
139 83
139 91
139 94
139 97
139 107
139 109
139 111
139 123
139 124
139 125
139 136
139 137
139 138
140 5
140 14
140 20
140 28
140 35
140 42
140 50
140 56
140 65
140 70
140 76
140 80
140 84
140 92
140 95
140 98
140 108
140 110
140 112
140 124
140 125
140 126
140 136
140 137
140 138
140 139
141 6
141 15
141 21
141 29
141 36
141 43
141 51
141 57
141 61
141 66
141 71
141 77
141 81
141 85
141 93
141 96
141 99
141 109
141 111
141 113
141 125
141 126
141 127
141 136
141 137
141 138
141 139
141 140
142 7
142 22
142 30
142 37
142 44
142 46
142 52
142 58
142 62
142 67
142 72
142 78
142 82
142 86
142 94
142 97
142 100
142 110
142 112
142 114
142 126
142 127
142 128
142 136
142 137
142 138
142 139
142 140
142 141
143 8
143 23
143 31
143 38
143 45
143 47
143 53
143 59
143 63
143 68
143 73
143 79
143 83
143 87
143 95
143 98
143 101
143 111
143 113
143 115
143 127
143 128
143 129
143 136
143 137
143 138
143 139
143 140
143 141
143 142
144 9
144 16
144 24
144 32
144 39
144 48
144 54
144 60
144 64
144 69
144 74
144 80
144 84
144 88
144 96
144 99
144 102
144 112
144 114
144 116
144 128
144 129
144 130
144 136
144 137
144 138
144 139
144 140
144 141
144 142
144 143
145 1
145 10
145 17
145 25
145 33
145 40
145 49
145 55
145 65
145 70
145 75
145 81
145 85
145 89
145 97
145 100
145 103
145 113
145 115
145 117
145 129
145 130
145 131
145 136
145 137
145 138
145 139
145 140
145 141
145 142
145 143
145 144
146 2
146 11
146 18
146 26
146 34
146 41
146 50
146 56
146 66
146 71
146 82
146 86
146 90
146 98
146 101
146 104
146 114
146 116
146 118
146 130
146 131
146 132
146 136
146 137
146 138
146 139
146 140
146 141
146 142
146 143
146 144
146 145
147 3
147 12
147 19
147 27
147 35
147 42
147 51
147 57
147 67
147 72
147 83
147 87
147 99
147 102
147 105
147 115
147 117
147 119
147 131
147 132
147 133
147 136
147 137
147 138
147 139
147 140
147 141
147 142
147 143
147 144
147 145
147 146
148 4
148 13
148 20
148 28
148 36
148 43
148 52
148 58
148 68
148 73
148 84
148 88
148 100
148 103
148 116
148 118
148 120
148 132
148 133
148 134
148 136
148 137
148 138
148 139
148 140
148 141
148 142
148 143
148 144
148 145
148 146
148 147
149 5
149 14
149 21
149 29
149 37
149 44
149 53
149 59
149 69
149 74
149 85
149 89
149 101
149 104
149 117
149 119
149 133
149 134
149 135
149 136
149 137
149 138
149 139
149 140
149 141
149 142
149 143
149 144
149 145
149 146
149 147
149 148
150 6
150 15
150 22
150 30
150 38
150 45
150 54
150 60
150 70
150 75
150 86
150 90
150 102
150 105
150 118
150 120
150 134
150 135
150 136
150 137
150 138
150 139
150 140
150 141
150 142
150 143
150 144
150 145
150 146
150 147
150 148
150 149
151 1
151 11
151 16
151 25
151 31
151 39
151 46
151 53
151 61
151 67
151 76
151 81
151 91
151 95
151 106
151 109
151 121
151 123
151 136
151 137
152 2
152 12
152 17
152 26
152 32
152 40
152 47
152 54
152 62
152 68
152 77
152 82
152 92
152 96
152 107
152 110
152 122
152 124
152 136
152 137
152 138
152 151
153 3
153 13
153 18
153 27
153 33
153 41
153 48
153 55
153 63
153 69
153 78
153 83
153 93
153 97
153 108
153 111
153 121
153 123
153 125
153 137
153 138
153 139
153 151
153 152
154 4
154 14
154 19
154 28
154 34
154 42
154 49
154 56
154 64
154 70
154 79
154 84
154 94
154 98
154 106
154 109
154 112
154 122
154 124
154 126
154 138
154 139
154 140
154 151
154 152
154 153
155 5
155 15
155 20
155 29
155 35
155 43
155 50
155 57
155 65
155 71
155 80
155 85
155 91
155 95
155 99
155 107
155 110
155 113
155 123
155 125
155 127
155 139
155 140
155 141
155 151
155 152
155 153
155 154
156 6
156 21
156 30
156 36
156 44
156 51
156 58
156 66
156 72
156 76
156 81
156 86
156 92
156 96
156 100
156 108
156 111
156 114
156 124
156 126
156 128
156 140
156 141
156 142
156 151
156 152
156 153
156 154
156 155
157 7
157 22
157 37
157 45
157 52
157 59
157 61
157 67
157 73
157 77
157 82
157 87
157 93
157 97
157 101
157 109
157 112
157 115
157 125
157 127
157 129
157 141
157 142
157 143
157 151
157 152
157 153
157 154
157 155
157 156
158 8
158 23
158 38
158 46
158 53
158 60
158 62
158 68
158 74
158 78
158 83
158 88
158 94
158 98
158 102
158 110
158 113
158 116
158 126
158 128
158 130
158 142
158 143
158 144
158 151
158 152
158 153
158 154
158 155
158 156
158 157
159 9
159 24
159 31
159 39
159 47
159 54
159 63
159 69
159 75
159 79
159 84
159 89
159 95
159 99
159 103
159 111
159 114
159 117
159 127
159 129
159 131
159 143
159 144
159 145
159 151
159 152
159 153
159 154
159 155
159 156
159 157
159 158
160 10
160 16
160 25
160 32
160 40
160 48
160 55
160 64
160 70
160 80
160 85
160 90
160 96
160 100
160 104
160 112
160 115
160 118
160 128
160 130
160 132
160 144
160 145
160 146
160 151
160 152
160 153
160 154
160 155
160 156
160 157
160 158
160 159
161 1
161 11
161 17
161 26
161 33
161 41
161 49
161 56
161 65
161 71
161 81
161 86
161 97
161 101
161 105
161 113
161 116
161 119
161 129
161 131
161 133
161 145
161 146
161 147
161 151
161 152
161 153
161 154
161 155
161 156
161 157
161 158
161 159
161 160
162 2
162 12
162 18
162 27
162 34
162 42
162 50
162 57
162 66
162 72
162 82
162 87
162 98
162 102
162 114
162 117
162 120
162 130
162 132
162 134
162 146
162 147
162 148
162 151
162 152
162 153
162 154
162 155
162 156
162 157
162 158
162 159
162 160
162 161
163 3
163 13
163 19
163 28
163 35
163 43
163 51
163 58
163 67
163 73
163 83
163 88
163 99
163 103
163 115
163 118
163 131
163 133
163 135
163 147
163 148
163 149
163 151
163 152
163 153
163 154
163 155
163 156
163 157
163 158
163 159
163 160
163 161
163 162
164 4
164 14
164 20
164 29
164 36
164 44
164 52
164 59
164 68
164 74
164 84
164 89
164 100
164 104
164 116
164 119
164 132
164 134
164 148
164 149
164 150
164 151
164 152
164 153
164 154
164 155
164 156
164 157
164 158
164 159
164 160
164 161
164 162
164 163
165 5
165 15
165 21
165 30
165 37
165 45
165 53
165 60
165 69
165 75
165 85
165 90
165 101
165 105
165 117
165 120
165 133
165 135
165 149
165 150
165 151
165 152
165 153
165 154
165 155
165 156
165 157
165 158
165 159
165 160
165 161
165 162
165 163
165 164
166 1
166 12
166 16
166 26
166 31
166 40
166 46
166 54
166 61
166 68
166 76
166 82
166 91
166 96
166 106
166 110
166 121
166 124
166 136
166 138
166 151
166 152
167 2
167 13
167 17
167 27
167 32
167 41
167 47
167 55
167 62
167 69
167 77
167 83
167 92
167 97
167 107
167 111
167 122
167 125
167 137
167 139
167 151
167 152
167 153
167 166
168 3
168 14
168 18
168 28
168 33
168 42
168 48
168 56
168 63
168 70
168 78
168 84
168 93
168 98
168 108
168 112
168 123
168 126
168 136
168 138
168 140
168 152
168 153
168 154
168 166
168 167
169 4
169 15
169 19
169 29
169 34
169 43
169 49
169 57
169 64
169 71
169 79
169 85
169 94
169 99
169 109
169 113
169 121
169 124
169 127
169 137
169 139
169 141
169 153
169 154
169 155
169 166
169 167
169 168
170 5
170 20
170 30
170 35
170 44
170 50
170 58
170 65
170 72
170 80
170 86
170 95
170 100
170 106
170 110
170 114
170 122
170 125
170 128
170 138
170 140
170 142
170 154
170 155
170 156
170 166
170 167
170 168
170 169
171 6
171 21
171 36
171 45
171 51
171 59
171 66
171 73
171 81
171 87
171 91
171 96
171 101
171 107
171 111
171 115
171 123
171 126
171 129
171 139
171 141
171 143
171 155
171 156
171 157
171 166
171 167
171 168
171 169
171 170
172 7
172 22
172 37
172 52
172 60
172 67
172 74
172 76
172 82
172 88
172 92
172 97
172 102
172 108
172 112
172 116
172 124
172 127
172 130
172 140
172 142
172 144
172 156
172 157
172 158
172 166
172 167
172 168
172 169
172 170
172 171
173 8
173 23
173 38
173 53
173 61
173 68
173 75
173 77
173 83
173 89
173 93
173 98
173 103
173 109
173 113
173 117
173 125
173 128
173 131
173 141
173 143
173 145
173 157
173 158
173 159
173 166
173 167
173 168
173 169
173 170
173 171
173 172
174 9
174 24
174 39
174 46
174 54
174 62
174 69
174 78
174 84
174 90
174 94
174 99
174 104
174 110
174 114
174 118
174 126
174 129
174 132
174 142
174 144
174 146
174 158
174 159
174 160
174 166
174 167
174 168
174 169
174 170
174 171
174 172
174 173
175 10
175 25
175 31
175 40
175 47
175 55
175 63
175 70
175 79
175 85
175 95
175 100
175 105
175 111
175 115
175 119
175 127
175 130
175 133
175 143
175 145
175 147
175 159
175 160
175 161
175 166
175 167
175 168
175 169
175 170
175 171
175 172
175 173
175 174
176 11
176 16
176 26
176 32
176 41
176 48
176 56
176 64
176 71
176 80
176 86
176 96
176 101
176 112
176 116
176 120
176 128
176 131
176 134
176 144
176 146
176 148
176 160
176 161
176 162
176 166
176 167
176 168
176 169
176 170
176 171
176 172
176 173
176 174
176 175
177 1
177 12
177 17
177 27
177 33
177 42
177 49
177 57
177 65
177 72
177 81
177 87
177 97
177 102
177 113
177 117
177 129
177 132
177 135
177 145
177 147
177 149
177 161
177 162
177 163
177 166
177 167
177 168
177 169
177 170
177 171
177 172
177 173
177 174
177 175
177 176
178 2
178 13
178 18
178 28
178 34
178 43
178 50
178 58
178 66
178 73
178 82
178 88
178 98
178 103
178 114
178 118
178 130
178 133
178 146
178 148
178 150
178 162
178 163
178 164
178 166
178 167
178 168
178 169
178 170
178 171
178 172
178 173
178 174
178 175
178 176
178 177
179 3
179 14
179 19
179 29
179 35
179 44
179 51
179 59
179 67
179 74
179 83
179 89
179 99
179 104
179 115
179 119
179 131
179 134
179 147
179 149
179 163
179 164
179 165
179 166
179 167
179 168
179 169
179 170
179 171
179 172
179 173
179 174
179 175
179 176
179 177
179 178
180 4
180 15
180 20
180 30
180 36
180 45
180 52
180 60
180 68
180 75
180 84
180 90
180 100
180 105
180 116
180 120
180 132
180 135
180 148
180 150
180 164
180 165
180 166
180 167
180 168
180 169
180 170
180 171
180 172
180 173
180 174
180 175
180 176
180 177
180 178
180 179
181 1
181 13
181 16
181 27
181 31
181 41
181 46
181 55
181 61
181 69
181 76
181 83
181 91
181 97
181 106
181 111
181 121
181 125
181 136
181 139
181 151
181 153
181 166
181 167
182 2
182 14
182 17
182 28
182 32
182 42
182 47
182 56
182 62
182 70
182 77
182 84
182 92
182 98
182 107
182 112
182 122
182 126
182 137
182 140
182 152
182 154
182 166
182 167
182 168
182 181
183 3
183 15
183 18
183 29
183 33
183 43
183 48
183 57
183 63
183 71
183 78
183 85
183 93
183 99
183 108
183 113
183 123
183 127
183 138
183 141
183 151
183 153
183 155
183 167
183 168
183 169
183 181
183 182
184 4
184 19
184 30
184 34
184 44
184 49
184 58
184 64
184 72
184 79
184 86
184 94
184 100
184 109
184 114
184 124
184 128
184 136
184 139
184 142
184 152
184 154
184 156
184 168
184 169
184 170
184 181
184 182
184 183
185 5
185 20
185 35
185 45
185 50
185 59
185 65
185 73
185 80
185 87
185 95
185 101
185 110
185 115
185 121
185 125
185 129
185 137
185 140
185 143
185 153
185 155
185 157
185 169
185 170
185 171
185 181
185 182
185 183
185 184
186 6
186 21
186 36
186 51
186 60
186 66
186 74
186 81
186 88
186 96
186 102
186 106
186 111
186 116
186 122
186 126
186 130
186 138
186 141
186 144
186 154
186 156
186 158
186 170
186 171
186 172
186 181
186 182
186 183
186 184
186 185
187 7
187 22
187 37
187 52
187 67
187 75
187 82
187 89
187 91
187 97
187 103
187 107
187 112
187 117
187 123
187 127
187 131
187 139
187 142
187 145
187 155
187 157
187 159
187 171
187 172
187 173
187 181
187 182
187 183
187 184
187 185
187 186
188 8
188 23
188 38
188 53
188 68
188 76
188 83
188 90
188 92
188 98
188 104
188 108
188 113
188 118
188 124
188 128
188 132
188 140
188 143
188 146
188 156
188 158
188 160
188 172
188 173
188 174
188 181
188 182
188 183
188 184
188 185
188 186
188 187
189 9
189 24
189 39
189 54
189 61
189 69
189 77
189 84
189 93
189 99
189 105
189 109
189 114
189 119
189 125
189 129
189 133
189 141
189 144
189 147
189 157
189 159
189 161
189 173
189 174
189 175
189 181
189 182
189 183
189 184
189 185
189 186
189 187
189 188
190 10
190 25
190 40
190 46
190 55
190 62
190 70
190 78
190 85
190 94
190 100
190 110
190 115
190 120
190 126
190 130
190 134
190 142
190 145
190 148
190 158
190 160
190 162
190 174
190 175
190 176
190 181
190 182
190 183
190 184
190 185
190 186
190 187
190 188
190 189
191 11
191 26
191 31
191 41
191 47
191 56
191 63
191 71
191 79
191 86
191 95
191 101
191 111
191 116
191 127
191 131
191 135
191 143
191 146
191 149
191 159
191 161
191 163
191 175
191 176
191 177
191 181
191 182
191 183
191 184
191 185
191 186
191 187
191 188
191 189
191 190
192 12
192 16
192 27
192 32
192 42
192 48
192 57
192 64
192 72
192 80
192 87
192 96
192 102
192 112
192 117
192 128
192 132
192 144
192 147
192 150
192 160
192 162
192 164
192 176
192 177
192 178
192 181
192 182
192 183
192 184
192 185
192 186
192 187
192 188
192 189
192 190
192 191
193 1
193 13
193 17
193 28
193 33
193 43
193 49
193 58
193 65
193 73
193 81
193 88
193 97
193 103
193 113
193 118
193 129
193 133
193 145
193 148
193 161
193 163
193 165
193 177
193 178
193 179
193 181
193 182
193 183
193 184
193 185
193 186
193 187
193 188
193 189
193 190
193 191
193 192
194 2
194 14
194 18
194 29
194 34
194 44
194 50
194 59
194 66
194 74
194 82
194 89
194 98
194 104
194 114
194 119
194 130
194 134
194 146
194 149
194 162
194 164
194 178
194 179
194 180
194 181
194 182
194 183
194 184
194 185
194 186
194 187
194 188
194 189
194 190
194 191
194 192
194 193
195 3
195 15
195 19
195 30
195 35
195 45
195 51
195 60
195 67
195 75
195 83
195 90
195 99
195 105
195 115
195 120
195 131
195 135
195 147
195 150
195 163
195 165
195 179
195 180
195 181
195 182
195 183
195 184
195 185
195 186
195 187
195 188
195 189
195 190
195 191
195 192
195 193
195 194
196 1
196 14
196 16
196 28
196 31
196 42
196 46
196 56
196 61
196 70
196 76
196 84
196 91
196 98
196 106
196 112
196 121
196 126
196 136
196 140
196 151
196 154
196 166
196 168
196 181
196 182
197 2
197 15
197 17
197 29
197 32
197 43
197 47
197 57
197 62
197 71
197 77
197 85
197 92
197 99
197 107
197 113
197 122
197 127
197 137
197 141
197 152
197 155
197 167
197 169
197 181
197 182
197 183
197 196
198 3
198 18
198 30
198 33
198 44
198 48
198 58
198 63
198 72
198 78
198 86
198 93
198 100
198 108
198 114
198 123
198 128
198 138
198 142
198 153
198 156
198 166
198 168
198 170
198 182
198 183
198 184
198 196
198 197
199 4
199 19
199 34
199 45
199 49
199 59
199 64
199 73
199 79
199 87
199 94
199 101
199 109
199 115
199 124
199 129
199 139
199 143
199 151
199 154
199 157
199 167
199 169
199 171
199 183
199 184
199 185
199 196
199 197
199 198
200 5
200 20
200 35
200 50
200 60
200 65
200 74
200 80
200 88
200 95
200 102
200 110
200 116
200 125
200 130
200 136
200 140
200 144
200 152
200 155
200 158
200 168
200 170
200 172
200 184
200 185
200 186
200 196
200 197
200 198
200 199
201 6
201 21
201 36
201 51
201 66
201 75
201 81
201 89
201 96
201 103
201 111
201 117
201 121
201 126
201 131
201 137
201 141
201 145
201 153
201 156
201 159
201 169
201 171
201 173
201 185
201 186
201 187
201 196
201 197
201 198
201 199
201 200
202 7
202 22
202 37
202 52
202 67
202 82
202 90
202 97
202 104
202 106
202 112
202 118
202 122
202 127
202 132
202 138
202 142
202 146
202 154
202 157
202 160
202 170
202 172
202 174
202 186
202 187
202 188
202 196
202 197
202 198
202 199
202 200
202 201
203 8
203 23
203 38
203 53
203 68
203 83
203 91
203 98
203 105
203 107
203 113
203 119
203 123
203 128
203 133
203 139
203 143
203 147
203 155
203 158
203 161
203 171
203 173
203 175
203 187
203 188
203 189
203 196
203 197
203 198
203 199
203 200
203 201
203 202
204 9
204 24
204 39
204 54
204 69
204 76
204 84
204 92
204 99
204 108
204 114
204 120
204 124
204 129
204 134
204 140
204 144
204 148
204 156
204 159
204 162
204 172
204 174
204 176
204 188
204 189
204 190
204 196
204 197
204 198
204 199
204 200
204 201
204 202
204 203
205 10
205 25
205 40
205 55
205 61
205 70
205 77
205 85
205 93
205 100
205 109
205 115
205 125
205 130
205 135
205 141
205 145
205 149
205 157
205 160
205 163
205 173
205 175
205 177
205 189
205 190
205 191
205 196
205 197
205 198
205 199
205 200
205 201
205 202
205 203
205 204
206 11
206 26
206 41
206 46
206 56
206 62
206 71
206 78
206 86
206 94
206 101
206 110
206 116
206 126
206 131
206 142
206 146
206 150
206 158
206 161
206 164
206 174
206 176
206 178
206 190
206 191
206 192
206 196
206 197
206 198
206 199
206 200
206 201
206 202
206 203
206 204
206 205
207 12
207 27
207 31
207 42
207 47
207 57
207 63
207 72
207 79
207 87
207 95
207 102
207 111
207 117
207 127
207 132
207 143
207 147
207 159
207 162
207 165
207 175
207 177
207 179
207 191
207 192
207 193
207 196
207 197
207 198
207 199
207 200
207 201
207 202
207 203
207 204
207 205
207 206
208 13
208 16
208 28
208 32
208 43
208 48
208 58
208 64
208 73
208 80
208 88
208 96
208 103
208 112
208 118
208 128
208 133
208 144
208 148
208 160
208 163
208 176
208 178
208 180
208 192
208 193
208 194
208 196
208 197
208 198
208 199
208 200
208 201
208 202
208 203
208 204
208 205
208 206
208 207
209 1
209 14
209 17
209 29
209 33
209 44
209 49
209 59
209 65
209 74
209 81
209 89
209 97
209 104
209 113
209 119
209 129
209 134
209 145
209 149
209 161
209 164
209 177
209 179
209 193
209 194
209 195
209 196
209 197
209 198
209 199
209 200
209 201
209 202
209 203
209 204
209 205
209 206
209 207
209 208
210 2
210 15
210 18
210 30
210 34
210 45
210 50
210 60
210 66
210 75
210 82
210 90
210 98
210 105
210 114
210 120
210 130
210 135
210 146
210 150
210 162
210 165
210 178
210 180
210 194
210 195
210 196
210 197
210 198
210 199
210 200
210 201
210 202
210 203
210 204
210 205
210 206
210 207
210 208
210 209
211 1
211 15
211 16
211 29
211 31
211 43
211 46
211 57
211 61
211 71
211 76
211 85
211 91
211 99
211 106
211 113
211 121
211 127
211 136
211 141
211 151
211 155
211 166
211 169
211 181
211 183
211 196
211 197
212 2
212 17
212 30
212 32
212 44
212 47
212 58
212 62
212 72
212 77
212 86
212 92
212 100
212 107
212 114
212 122
212 128
212 137
212 142
212 152
212 156
212 167
212 170
212 182
212 184
212 196
212 197
212 198
212 211
213 3
213 18
213 33
213 45
213 48
213 59
213 63
213 73
213 78
213 87
213 93
213 101
213 108
213 115
213 123
213 129
213 138
213 143
213 153
213 157
213 168
213 171
213 181
213 183
213 185
213 197
213 198
213 199
213 211
213 212
214 4
214 19
214 34
214 49
214 60
214 64
214 74
214 79
214 88
214 94
214 102
214 109
214 116
214 124
214 130
214 139
214 144
214 154
214 158
214 166
214 169
214 172
214 182
214 184
214 186
214 198
214 199
214 200
214 211
214 212
214 213
215 5
215 20
215 35
215 50
215 65
215 75
215 80
215 89
215 95
215 103
215 110
215 117
215 125
215 131
215 140
215 145
215 151
215 155
215 159
215 167
215 170
215 173
215 183
215 185
215 187
215 199
215 200
215 201
215 211
215 212
215 213
215 214
216 6
216 21
216 36
216 51
216 66
216 81
216 90
216 96
216 104
216 111
216 118
216 126
216 132
216 136
216 141
216 146
216 152
216 156
216 160
216 168
216 171
216 174
216 184
216 186
216 188
216 200
216 201
216 202
216 211
216 212
216 213
216 214
216 215
217 7
217 22
217 37
217 52
217 67
217 82
217 97
217 105
217 112
217 119
217 121
217 127
217 133
217 137
217 142
217 147
217 153
217 157
217 161
217 169
217 172
217 175
217 185
217 187
217 189
217 201
217 202
217 203
217 211
217 212
217 213
217 214
217 215
217 216
218 8
218 23
218 38
218 53
218 68
218 83
218 98
218 106
218 113
218 120
218 122
218 128
218 134
218 138
218 143
218 148
218 154
218 158
218 162
218 170
218 173
218 176
218 186
218 188
218 190
218 202
218 203
218 204
218 211
218 212
218 213
218 214
218 215
218 216
218 217
219 9
219 24
219 39
219 54
219 69
219 84
219 91
219 99
219 107
219 114
219 123
219 129
219 135
219 139
219 144
219 149
219 155
219 159
219 163
219 171
219 174
219 177
219 187
219 189
219 191
219 203
219 204
219 205
219 211
219 212
219 213
219 214
219 215
219 216
219 217
219 218
220 10
220 25
220 40
220 55
220 70
220 76
220 85
220 92
220 100
220 108
220 115
220 124
220 130
220 140
220 145
220 150
220 156
220 160
220 164
220 172
220 175
220 178
220 188
220 190
220 192
220 204
220 205
220 206
220 211
220 212
220 213
220 214
220 215
220 216
220 217
220 218
220 219
221 11
221 26
221 41
221 56
221 61
221 71
221 77
221 86
221 93
221 101
221 109
221 116
221 125
221 131
221 141
221 146
221 157
221 161
221 165
221 173
221 176
221 179
221 189
221 191
221 193
221 205
221 206
221 207
221 211
221 212
221 213
221 214
221 215
221 216
221 217
221 218
221 219
221 220
222 12
222 27
222 42
222 46
222 57
222 62
222 72
222 78
222 87
222 94
222 102
222 110
222 117
222 126
222 132
222 142
222 147
222 158
222 162
222 174
222 177
222 180
222 190
222 192
222 194
222 206
222 207
222 208
222 211
222 212
222 213
222 214
222 215
222 216
222 217
222 218
222 219
222 220
222 221
223 13
223 28
223 31
223 43
223 47
223 58
223 63
223 73
223 79
223 88
223 95
223 103
223 111
223 118
223 127
223 133
223 143
223 148
223 159
223 163
223 175
223 178
223 191
223 193
223 195
223 207
223 208
223 209
223 211
223 212
223 213
223 214
223 215
223 216
223 217
223 218
223 219
223 220
223 221
223 222
224 14
224 16
224 29
224 32
224 44
224 48
224 59
224 64
224 74
224 80
224 89
224 96
224 104
224 112
224 119
224 128
224 134
224 144
224 149
224 160
224 164
224 176
224 179
224 192
224 194
224 208
224 209
224 210
224 211
224 212
224 213
224 214
224 215
224 216
224 217
224 218
224 219
224 220
224 221
224 222
224 223
225 1
225 15
225 17
225 30
225 33
225 45
225 49
225 60
225 65
225 75
225 81
225 90
225 97
225 105
225 113
225 120
225 129
225 135
225 145
225 150
225 161
225 165
225 177
225 180
225 193
225 195
225 209
225 210
225 211
225 212
225 213
225 214
225 215
225 216
225 217
225 218
225 219
225 220
225 221
225 222
225 223
225 224
?